%nprocshared=12
%mem=12GB
%chk=optdft.chk
#p opt M062X def2SVP empiricaldispersion=GD3 SCRF(solvent=water) 

titolo

1 2
C  0.03332315650209102115 0.16010475052052744460 0.00589059352511511758
C  -0.03613579996746794920 -0.54481919006896994961 1.23024287583279923197
C  0.01079173087498723482 -0.61283538825455996513 -1.17852347933466705676
C  -0.13242747848763558594 -1.92233784080137315442 1.20519528174121126618
H  -0.03719469487677451447 -0.04449102800189153051 2.18195953854319046883
N  0.14783611007791364056 1.51036958892855510683 -0.03000581901656254949
C  -0.08791554738892434773 -1.98685290646007972626 -1.07957988372763558083
H  0.04732249726576689269 -0.16698925545707765661 -2.15626614824207107901
N  -0.19442548308148130398 -2.60617554725234201740 0.07956489772013827788
H  -0.19764934511890971947 -2.49550705266933414705 2.11807356475062213974
C  0.22800560722306439931 2.26664115163667645447 1.17802450674069247860
C  0.27579038726009730276 2.19738268531499603142 -1.27473542912169324204
H  -0.11819030685466302977 -2.61067404467551700264 -1.96051928174476053357
H  -0.62646660076952587204 2.05738229414166795550 1.82573991622448206229
H  1.13338160425557443745 2.01871949919317561495 1.73935742834518580757
H  0.24496994358558096816 3.32921180526961535406 0.95528625462364313847
H  -0.55305605158628201590 1.95098225886230247639 -1.94237881462835448865
H  1.20205348535697242873 1.91918730759051880952 -1.78552843274856010147
H  0.28524116572961505378 3.27084365218310724188 -1.11179756948277419504

